db/data/916216632250392549414460315942885717031.z3.out
-------------------
2500.152703067
